30
0   51   51
1   52   51
2   52   52
3   27   27
4   26   26
5   27   26
6   14   14
7   13   14
8   14   13
9   7   8
10   7   7
11   7   7
12   5   4
13   5   4
14   4   5
15   3   2
16   3   2
17   2   3
18   2   1
19   2   1
20   1   2
21   1   2
22   2   1
23   2   2
24   2   2
25   1   2
26   1   2
27   2   1
28   2   2
29   1   2
100
